unsat
(define-fun f ((x (_ BitVec 32))) (_ BitVec 32) (bvand x (bvadd x (bvand x (bvsub #b00000000000000000000000000000000 x)))))
0.29user 0.01system 0:00.30elapsed 99%CPU (0avgtext+0avgdata 31532maxresident)k
0inputs+8outputs (0major+2476minor)pagefaults 0swaps
